2972
3108
3053
3088
3048
3719
3325
3768
3567
3341
3937
3948
3991
3662
3649
4392
4397
4522
4399
4258
4901
4969
5065
4820
4321
5341
5301
5382
5651
5426
6160
5927
5889
5883
5920
6383
6527
6505
6651
6378
3707
3962
4009
4034
3840
4711
4644
4296
4454
4462
4939
5090
5333
5205
5051
5941
5735
5687
5773
5778
6335
6099
6573
6264
6433
7024
7250
7221
7146
7296
7534
7551
7560
7619
7296
8341
8230
8376
8720
8638
